
n_res = 8;
rcap = [18, 18, 22, 18, 770, 779, 816, 803];
rtype = [1, 1, 1, 1, 2, 2, 2, 2];
n_tasks = 50;
modes =  [{1, 2, 3, 4, 5, 6}, {7, 8, 9, 10, 11, 12}, {13, 14, 15, 16, 17, 18}, {19, 20, 21, 22, 23, 24}, {25, 26, 27, 28, 29, 30}, {31, 32, 33, 34, 35, 36}, {37, 38, 39, 40, 41, 42}, {43, 44, 45, 46, 47, 48}, {49, 50, 51, 52, 53, 54}, {55, 56, 57, 58, 59, 60}, {61, 62, 63, 64, 65, 66}, {67, 68, 69, 70, 71, 72}, {73, 74, 75, 76, 77, 78}, {79, 80, 81, 82, 83, 84}, {85, 86, 87, 88, 89, 90}, {91, 92, 93, 94, 95, 96}, {97, 98, 99, 100, 101, 102}, {103, 104, 105, 106, 107, 108}, {109, 110, 111, 112, 113, 114}, {115, 116, 117, 118, 119, 120}, {121, 122, 123, 124, 125, 126}, {127, 128, 129, 130, 131, 132}, {133, 134, 135, 136, 137, 138}, {139, 140, 141, 142, 143, 144}, {145, 146, 147, 148, 149, 150}, {151, 152, 153, 154, 155, 156}, {157, 158, 159, 160, 161, 162}, {163, 164, 165, 166, 167, 168}, {169, 170, 171, 172, 173, 174}, {175, 176, 177, 178, 179, 180}, {181, 182, 183, 184, 185, 186}, {187, 188, 189, 190, 191, 192}, {193, 194, 195, 196, 197, 198}, {199, 200, 201, 202, 203, 204}, {205, 206, 207, 208, 209, 210}, {211, 212, 213, 214, 215, 216}, {217, 218, 219, 220, 221, 222}, {223, 224, 225, 226, 227, 228}, {229, 230, 231, 232, 233, 234}, {235, 236, 237, 238, 239, 240}, {241, 242, 243, 244, 245, 246}, {247, 248, 249, 250, 251, 252}, {253, 254, 255, 256, 257, 258}, {259, 260, 261, 262, 263, 264}, {265, 266, 267, 268, 269, 270}, {271, 272, 273, 274, 275, 276}, {277, 278, 279, 280, 281, 282}, {283, 284, 285, 286, 287, 288}, {289, 290, 291, 292, 293, 294}, {295, 296, 297, 298, 299, 300}];
succ =  [{36, 22, 19, 18, 13, 10, 5}, {23, 19, 16, 13, 12, 10}, {36, 26, 19, 17, 14}, {41, 40, 39, 28, 21, 16, 12}, {30, 26, 17, 14}, {36, 27, 25, 23, 14}, {36, 14, 13}, {41, 36, 33, 28, 27, 25, 22, 20}, {36, 25, 24, 23, 20, 19}, {27, 25, 14}, {32, 28, 27, 25, 21, 20}, {38, 36, 33, 30, 29, 27, 26, 25}, {38, 29, 26, 25, 24, 21}, {32, 28, 21, 20}, {50, 41, 39, 38, 35, 34, 33, 27, 26}, {38, 36, 32, 29, 27, 25}, {41, 38, 29, 25, 24}, {39, 38, 35, 29, 27, 26}, {50, 49, 38, 35, 32, 27}, {47, 40, 39, 38, 34, 29}, {50, 49, 47, 46, 35, 33, 31}, {50, 47, 40, 35, 32, 31}, {50, 49, 47, 42, 41, 31}, {49, 47, 46, 39, 31}, {50, 47, 37, 35, 34}, {49, 48, 47, 43, 32}, {47, 46, 42, 31}, {49, 44, 38, 37}, {50, 48, 46, 44, 42}, {50, 47, 44, 43, 42}, {48, 44, 43, 37}, {46, 44, 42, 37}, {44, 43, 42, 37}, {49, 45, 43, 42}, {44, 43}, {37}, {45}, {43}, {42}, {42}, {46}, {}, {}, {}, {}, {}, {}, {}, {}, {}];
n_opt = 300;
dur = [8, 10, 11, 16, 19, 26, 6, 9, 12, 13, 15, 28, 5, 8, 12, 13, 20, 30, 2, 6, 10, 11, 12, 28, 3, 5, 11, 12, 26, 30, 18, 24, 26, 27, 28, 29, 11, 14, 15, 17, 20, 23, 1, 8, 11, 17, 22, 28, 3, 10, 11, 21, 26, 28, 1, 10, 11, 16, 27, 30, 5, 14, 17, 25, 26, 28, 1, 2, 8, 15, 16, 28, 10, 11, 16, 17, 20, 23, 1, 4, 6, 19, 23, 29, 3, 9, 10, 12, 18, 25, 7, 8, 11, 26, 28, 30, 7, 18, 19, 23, 24, 26, 5, 11, 16, 20, 22, 28, 6, 15, 16, 18, 20, 30, 9, 16, 19, 20, 25, 27, 4, 6, 7, 23, 26, 27, 1, 5, 12, 19, 20, 24, 11, 12, 17, 24, 25, 28, 1, 2, 4, 12, 22, 25, 3, 9, 12, 14, 19, 22, 8, 14, 19, 20, 24, 26, 6, 7, 13, 21, 25, 27, 4, 16, 20, 21, 22, 28, 4, 6, 8, 13, 29, 30, 3, 5, 17, 19, 24, 27, 9, 10, 12, 23, 24, 25, 18, 21, 22, 23, 25, 27, 2, 12, 18, 21, 23, 25, 7, 11, 15, 16, 17, 18, 1, 4, 24, 25, 29, 30, 3, 4, 8, 13, 19, 23, 1, 2, 14, 15, 20, 24, 2, 6, 16, 23, 27, 28, 1, 7, 12, 17, 23, 30, 9, 20, 22, 24, 25, 26, 12, 16, 21, 26, 27, 30, 1, 2, 3, 5, 12, 20, 5, 15, 16, 21, 24, 30, 5, 7, 19, 20, 21, 22, 5, 6, 7, 16, 17, 25, 9, 10, 12, 13, 16, 28, 10, 22, 24, 26, 27, 28, 3, 6, 11, 14, 15, 26, 8, 11, 14, 21, 22, 28, 1, 3, 12, 17, 20, 24];
rreq = [|4, 3, 3, 3, 2, 1, 1, 1, 1, 1, 1, 1, 5, 4, 4, 4, 4, 4, 2, 1, 1, 1, 1, 1, 3, 2, 2, 1, 1, 1, 2, 2, 2, 2, 2, 2, 5, 4, 4, 3, 3, 3, 3, 3, 3, 3, 3, 3, 5, 4, 4, 4, 3, 3, 3, 2, 2, 1, 1, 1, 3, 2, 2, 1, 1, 1, 3, 3, 3, 3, 3, 3, 5, 4, 4, 4, 4, 4, 2, 1, 1, 1, 1, 1, 2, 1, 1, 1, 1, 1, 5, 4, 3, 3, 3, 2, 4, 4, 4, 4, 4, 4, 4, 4, 4, 4, 4, 4, 2, 2, 2, 2, 2, 2, 4, 3, 2, 2, 1, 1, 1, 1, 1, 1, 1, 1, 4, 4, 4, 4, 4, 4, 4, 3, 3, 3, 2, 2, 3, 3, 2, 2, 2, 1, 2, 2, 2, 2, 1, 1, 4, 4, 4, 4, 3, 3, 2, 2, 2, 1, 1, 1, 2, 2, 2, 2, 1, 1, 4, 3, 3, 3, 3, 3, 4, 4, 3, 3, 3, 2, 3, 3, 2, 2, 1, 1, 5, 4, 3, 3, 2, 2, 3, 2, 2, 1, 1, 1, 2, 2, 2, 2, 2, 2, 3, 3, 3, 3, 2, 2, 4, 3, 3, 2, 2, 1, 4, 3, 3, 2, 2, 1, 3, 2, 2, 2, 1, 1, 4, 4, 4, 3, 2, 2, 2, 2, 2, 2, 2, 2, 4, 4, 4, 4, 4, 4, 3, 2, 2, 1, 1, 1, 4, 4, 4, 4, 4, 4, 4, 4, 4, 3, 2, 2, 4, 4, 4, 4, 4, 4, 4, 3, 3, 2, 2, 1, 5, 4, 4, 3, 2, 2, 2, 2, 2, 2, 2, 2, 5, 4, 4, 4, 4, 4, 2, 2, 2, 2, 1, 1
 |2, 2, 2, 2, 2, 2, 1, 1, 1, 1, 1, 1, 4, 4, 4, 4, 3, 3, 3, 2, 2, 2, 1, 1, 3, 3, 3, 3, 2, 2, 4, 3, 3, 2, 1, 1, 1, 1, 1, 1, 1, 1, 3, 3, 3, 3, 3, 3, 3, 3, 3, 2, 2, 1, 4, 4, 3, 3, 2, 1, 4, 4, 4, 4, 3, 3, 4, 4, 4, 3, 3, 3, 2, 2, 2, 2, 2, 2, 3, 3, 3, 2, 2, 1, 5, 5, 5, 5, 5, 5, 2, 2, 2, 1, 1, 1, 4, 4, 4, 4, 4, 4, 4, 4, 4, 4, 3, 3, 4, 4, 4, 4, 4, 4, 2, 1, 1, 1, 1, 1, 1, 1, 1, 1, 1, 1, 4, 4, 4, 4, 3, 3, 2, 1, 1, 1, 1, 1, 3, 3, 2, 2, 1, 1, 3, 3, 3, 3, 3, 3, 3, 3, 3, 3, 2, 2, 5, 4, 4, 3, 2, 2, 3, 3, 3, 2, 1, 1, 5, 4, 4, 4, 4, 4, 5, 4, 3, 3, 2, 1, 4, 4, 4, 3, 2, 2, 3, 3, 3, 2, 2, 2, 5, 4, 4, 4, 4, 4, 5, 5, 5, 5, 5, 5, 2, 2, 2, 2, 2, 2, 2, 2, 2, 2, 2, 2, 5, 4, 4, 4, 3, 3, 5, 5, 5, 5, 5, 5, 2, 2, 2, 1, 1, 1, 5, 5, 5, 5, 5, 5, 4, 3, 3, 2, 1, 1, 3, 3, 3, 3, 3, 3, 3, 3, 3, 3, 2, 2, 5, 4, 4, 4, 3, 3, 3, 3, 3, 3, 3, 3, 3, 3, 3, 3, 3, 3, 4, 4, 4, 4, 4, 4, 2, 2, 2, 2, 2, 2, 3, 3, 3, 3, 2, 2, 5, 3, 3, 2, 2, 1
 |4, 4, 4, 4, 4, 4, 4, 3, 3, 3, 3, 3, 4, 3, 3, 3, 1, 1, 5, 4, 4, 4, 4, 4, 4, 4, 4, 4, 3, 3, 5, 5, 5, 5, 5, 5, 5, 4, 3, 3, 2, 1, 3, 3, 3, 2, 1, 1, 3, 2, 2, 2, 2, 2, 3, 2, 2, 2, 1, 1, 3, 3, 3, 3, 3, 3, 4, 3, 3, 3, 3, 3, 3, 2, 2, 2, 1, 1, 4, 3, 3, 3, 3, 3, 4, 3, 3, 2, 1, 1, 4, 3, 3, 2, 2, 2, 3, 3, 3, 3, 3, 3, 1, 1, 1, 1, 1, 1, 2, 2, 2, 2, 2, 2, 2, 2, 2, 2, 2, 2, 2, 2, 2, 2, 2, 2, 4, 3, 2, 2, 1, 1, 4, 4, 4, 3, 3, 3, 4, 3, 3, 2, 2, 1, 4, 3, 2, 2, 1, 1, 3, 3, 3, 3, 3, 3, 4, 4, 4, 3, 3, 3, 5, 4, 4, 4, 4, 4, 1, 1, 1, 1, 1, 1, 4, 4, 3, 3, 2, 2, 2, 2, 2, 2, 2, 2, 1, 1, 1, 1, 1, 1, 4, 4, 4, 4, 4, 4, 5, 5, 5, 5, 5, 5, 5, 5, 5, 5, 5, 5, 2, 2, 2, 2, 2, 2, 4, 4, 4, 4, 4, 4, 4, 4, 3, 3, 3, 2, 5, 3, 3, 3, 2, 1, 3, 3, 3, 3, 2, 2, 3, 3, 2, 2, 2, 1, 2, 2, 2, 2, 2, 2, 4, 3, 3, 3, 3, 3, 4, 4, 3, 3, 1, 1, 2, 1, 1, 1, 1, 1, 5, 4, 3, 2, 2, 1, 3, 3, 2, 2, 1, 1, 4, 4, 4, 4, 4, 4, 5, 4, 4, 4, 3, 3, 3, 3, 2, 2, 1, 1
 |5, 4, 4, 4, 4, 4, 2, 2, 2, 2, 2, 2, 3, 3, 3, 2, 2, 2, 2, 2, 2, 2, 1, 1, 4, 4, 4, 4, 4, 4, 3, 3, 3, 3, 3, 3, 4, 4, 4, 3, 3, 3, 3, 3, 3, 3, 3, 3, 4, 3, 3, 3, 2, 2, 2, 2, 2, 2, 1, 1, 3, 3, 3, 3, 3, 3, 3, 3, 3, 2, 1, 1, 4, 3, 3, 3, 3, 3, 5, 5, 5, 5, 5, 5, 2, 2, 2, 2, 2, 2, 3, 3, 3, 3, 3, 3, 2, 2, 2, 2, 2, 2, 1, 1, 1, 1, 1, 1, 4, 4, 3, 3, 1, 1, 4, 3, 3, 2, 2, 2, 3, 3, 3, 3, 3, 3, 2, 2, 2, 2, 2, 2, 1, 1, 1, 1, 1, 1, 3, 3, 3, 2, 2, 2, 5, 5, 5, 5, 5, 5, 2, 2, 2, 2, 2, 2, 3, 3, 3, 3, 3, 3, 4, 3, 3, 3, 3, 3, 5, 5, 5, 5, 5, 5, 4, 3, 3, 3, 3, 3, 3, 2, 2, 2, 2, 2, 5, 4, 4, 4, 3, 3, 4, 4, 4, 3, 3, 3, 2, 2, 2, 2, 2, 2, 4, 4, 4, 4, 4, 4, 4, 3, 3, 3, 3, 3, 4, 3, 3, 3, 3, 3, 5, 4, 3, 2, 1, 1, 1, 1, 1, 1, 1, 1, 2, 2, 2, 2, 2, 2, 4, 4, 4, 4, 4, 4, 4, 4, 4, 4, 4, 4, 4, 3, 3, 2, 2, 1, 3, 2, 2, 1, 1, 1, 2, 2, 2, 2, 1, 1, 5, 5, 5, 5, 5, 5, 3, 3, 3, 3, 3, 3, 3, 3, 2, 2, 2, 1, 5, 4, 3, 3, 2, 2, 4, 4, 4, 4, 4, 4
 |19, 17, 15, 12, 10, 9, 25, 21, 18, 10, 9, 2, 27, 20, 18, 15, 6, 1, 23, 22, 21, 21, 19, 19, 24, 24, 24, 23, 22, 22, 26, 26, 22, 16, 14, 11, 9, 9, 7, 6, 6, 5, 27, 26, 24, 24, 23, 22, 2, 2, 2, 2, 2, 2, 23, 22, 22, 21, 21, 21, 18, 17, 14, 12, 6, 5, 14, 13, 13, 13, 13, 13, 23, 19, 17, 14, 11, 5, 17, 17, 16, 14, 14, 12, 21, 16, 14, 11, 7, 4, 26, 24, 23, 20, 19, 15, 28, 28, 27, 26, 25, 25, 26, 22, 20, 16, 15, 10, 17, 15, 13, 10, 6, 4, 10, 8, 8, 8, 7, 6, 22, 20, 19, 16, 15, 15, 24, 21, 17, 13, 11, 7, 25, 22, 21, 18, 18, 16, 18, 13, 11, 11, 7, 3, 21, 21, 21, 21, 21, 21, 15, 13, 12, 10, 10, 9, 13, 12, 12, 11, 11, 10, 27, 26, 25, 25, 25, 24, 7, 7, 7, 7, 7, 7, 25, 22, 21, 19, 18, 14, 26, 25, 25, 25, 24, 24, 15, 13, 10, 8, 6, 5, 21, 18, 14, 14, 11, 6, 19, 17, 16, 14, 13, 12, 6, 4, 4, 3, 1, 1, 22, 19, 17, 14, 13, 7, 30, 29, 29, 28, 28, 27, 18, 16, 16, 14, 11, 10, 22, 20, 16, 12, 8, 4, 14, 13, 10, 7, 6, 4, 16, 12, 11, 7, 6, 3, 10, 9, 6, 6, 3, 1, 19, 17, 16, 15, 14, 14, 12, 12, 12, 12, 12, 12, 22, 21, 20, 20, 18, 18, 13, 13, 13, 13, 13, 13, 25, 22, 22, 19, 18, 16, 25, 19, 16, 11, 6, 4, 20, 19, 19, 18, 17, 17, 28, 25, 24, 23, 19, 19
 |25, 24, 24, 24, 24, 24, 24, 20, 15, 13, 9, 6, 10, 10, 10, 10, 10, 10, 12, 12, 10, 6, 6, 3, 20, 18, 18, 17, 15, 15, 12, 12, 11, 11, 11, 10, 18, 16, 12, 12, 7, 4, 14, 12, 10, 10, 9, 8, 16, 14, 14, 12, 11, 9, 18, 16, 11, 10, 8, 4, 21, 20, 20, 18, 17, 16, 27, 26, 25, 23, 21, 19, 17, 15, 15, 14, 13, 11, 28, 26, 25, 24, 22, 21, 27, 21, 20, 16, 13, 11, 14, 14, 11, 10, 9, 7, 29, 26, 26, 23, 20, 18, 28, 28, 27, 26, 25, 24, 23, 21, 18, 10, 8, 5, 24, 24, 22, 22, 21, 20, 22, 22, 22, 22, 22, 22, 3, 3, 3, 2, 2, 2, 16, 13, 11, 10, 7, 5, 12, 11, 9, 6, 5, 3, 26, 24, 23, 20, 19, 19, 20, 16, 11, 8, 4, 3, 16, 15, 14, 13, 12, 12, 14, 12, 9, 8, 5, 4, 30, 28, 25, 25, 23, 21, 27, 26, 25, 20, 18, 17, 12, 11, 9, 9, 5, 4, 19, 17, 16, 13, 13, 10, 16, 14, 10, 9, 8, 5, 17, 16, 16, 16, 15, 15, 12, 9, 8, 7, 6, 5, 13, 11, 10, 9, 8, 7, 24, 22, 22, 21, 21, 20, 25, 24, 24, 24, 24, 24, 24, 21, 21, 18, 17, 15, 28, 25, 24, 23, 20, 18, 13, 11, 10, 8, 8, 5, 27, 27, 25, 24, 23, 20, 10, 8, 7, 4, 3, 2, 19, 18, 15, 12, 7, 4, 12, 11, 11, 11, 10, 10, 20, 19, 17, 17, 16, 15, 16, 15, 13, 13, 12, 11, 20, 18, 16, 15, 14, 10, 23, 19, 19, 16, 13, 13, 28, 28, 26, 26, 24, 22
 |21, 21, 19, 14, 13, 10, 27, 24, 24, 22, 20, 19, 27, 27, 22, 19, 17, 16, 28, 27, 26, 25, 22, 21, 27, 23, 19, 15, 11, 8, 19, 16, 14, 9, 7, 2, 18, 18, 18, 18, 18, 18, 4, 4, 4, 4, 4, 4, 24, 22, 16, 15, 13, 9, 28, 25, 25, 23, 20, 19, 24, 19, 18, 15, 12, 10, 27, 26, 25, 24, 24, 22, 19, 17, 14, 9, 7, 4, 20, 18, 14, 11, 7, 6, 14, 12, 10, 9, 7, 6, 23, 21, 14, 10, 7, 1, 20, 16, 14, 11, 9, 5, 30, 29, 29, 28, 28, 27, 14, 13, 13, 12, 12, 11, 23, 20, 17, 14, 8, 1, 23, 19, 18, 13, 12, 8, 25, 24, 22, 21, 19, 19, 27, 24, 23, 22, 21, 19, 18, 18, 17, 17, 17, 16, 19, 17, 15, 14, 12, 10, 29, 29, 29, 29, 28, 28, 21, 18, 15, 13, 12, 9, 20, 19, 18, 15, 14, 10, 16, 14, 13, 13, 12, 11, 18, 18, 18, 18, 18, 18, 24, 19, 17, 13, 10, 6, 30, 30, 30, 30, 30, 30, 17, 16, 16, 16, 16, 16, 20, 16, 14, 11, 9, 7, 24, 24, 22, 21, 21, 20, 30, 27, 23, 22, 20, 16, 20, 16, 14, 12, 11, 9, 18, 17, 16, 12, 12, 10, 12, 8, 8, 5, 4, 2, 14, 13, 12, 9, 7, 6, 15, 15, 15, 15, 15, 15, 24, 24, 24, 23, 23, 23, 5, 4, 3, 3, 2, 2, 22, 17, 16, 14, 13, 10, 12, 10, 10, 9, 6, 6, 11, 8, 7, 6, 5, 4, 23, 21, 18, 11, 8, 5, 18, 18, 16, 15, 15, 14, 13, 12, 11, 10, 9, 9, 28, 26, 24, 23, 22, 22
 |12, 12, 10, 8, 6, 5, 23, 23, 23, 22, 22, 22, 26, 25, 25, 25, 25, 25, 20, 16, 14, 13, 10, 8, 24, 20, 18, 13, 10, 5, 28, 26, 25, 23, 23, 21, 14, 9, 9, 6, 3, 3, 24, 24, 23, 22, 22, 21, 16, 14, 10, 9, 7, 4, 25, 25, 25, 24, 23, 23, 29, 28, 28, 28, 27, 27, 19, 17, 17, 15, 15, 14, 25, 23, 20, 17, 15, 14, 23, 21, 20, 17, 16, 15, 22, 19, 18, 16, 12, 11, 21, 14, 12, 10, 7, 3, 21, 21, 20, 18, 15, 15, 23, 22, 20, 18, 16, 14, 18, 16, 12, 8, 5, 3, 24, 24, 17, 14, 8, 6, 20, 16, 14, 14, 9, 8, 12, 12, 11, 11, 10, 9, 6, 5, 5, 5, 5, 5, 25, 24, 22, 21, 19, 18, 25, 25, 25, 24, 24, 23, 22, 17, 15, 14, 10, 8, 28, 27, 26, 25, 22, 21, 11, 11, 11, 11, 11, 11, 22, 22, 21, 19, 18, 17, 25, 20, 18, 12, 9, 8, 15, 15, 14, 13, 13, 12, 26, 26, 25, 25, 25, 24, 9, 7, 5, 4, 3, 2, 23, 21, 19, 14, 10, 10, 26, 24, 23, 20, 19, 18, 14, 14, 13, 13, 13, 12, 14, 12, 12, 10, 10, 8, 18, 13, 10, 10, 7, 2, 25, 24, 23, 23, 23, 22, 28, 23, 20, 17, 10, 8, 27, 22, 17, 12, 9, 4, 26, 22, 20, 17, 13, 7, 17, 14, 12, 8, 5, 4, 15, 15, 14, 13, 11, 11, 8, 7, 5, 4, 2, 1, 12, 11, 10, 8, 7, 5, 28, 28, 27, 25, 24, 24, 11, 11, 11, 11, 11, 11, 11, 11, 9, 8, 7, 6, 27, 23, 23, 20, 19, 15|];